model_name='GCN_64_2'
gnn='GCN'
neurons='64'
layers='2'
state_dict.keys()=odict_keys(['layers.0.lin.weight', 'layers.1.lin.weight', 'fc11.weight', 'fc11.bias', 'fc12.weight', 'fc12.bias'])
Set parameter Username
Academic license - for non-commercial use only - expires 2023-06-18
Set parameter TimeLimit to value 100
Set parameter NonConvex to value 2
Warning: constraint name "min constr" has a space
Warning: Q constraint 0 doesn't have a name
Gurobi Optimizer version 9.5.1 build v9.5.1rc2 (linux64)
Thread count: 8 physical cores, 8 logical processors, using up to 8 threads
Optimize a model with 1041 rows, 2109 columns and 3917 nonzeros
Model fingerprint: 0x9284b12f
Model has 384 quadratic constraints
Variable types: 993 continuous, 1116 integer (1096 binary)
Coefficient statistics:
  Matrix range     [1e-04, 3e+02]
  QMatrix range    [8e-05, 5e-01]
  QLMatrix range   [1e+00, 1e+00]
  Objective range  [1e+00, 1e+00]
  Bounds range     [2e-01, 3e+02]
  RHS range        [2e-02, 2e+02]
Presolve removed 82 rows and 714 columns
Presolve time: 0.09s
Presolved: 5967 rows, 2595 columns, 60470 nonzeros
Presolved model has 1024 bilinear constraint(s)
Variable types: 2059 continuous, 536 integer (530 binary)

Root relaxation: objective 7.254885e+01, 4306 iterations, 0.70 seconds (0.97 work units)

    Nodes    |    Current Node    |     Objective Bounds      |     Work
 Expl Unexpl |  Obj  Depth IntInf | Incumbent    BestBd   Gap | It/Node Time

     0     0   72.10446    0 1116          -   72.10446      -     -    1s
H    0     0                       2.2033652   72.10446  3172%     -    1s
     0     0   64.90414    0 1138    2.20337   64.90414  2846%     -    2s
     0     0   64.21727    0 1151    2.20337   64.21727  2815%     -    3s
     0     0   62.12636    0 1205    2.20337   62.12636  2720%     -    5s
     0     0   60.35571    0 1237    2.20337   60.35571  2639%     -    6s
     0     0   54.12175    0 1304    2.20337   54.12175  2356%     -    9s
     0     0   51.82196    0 1363    2.20337   51.82196  2252%     -   11s
     0     0   45.86898    0 1378    2.20337   45.86898  1982%     -   15s
     0     0   44.75224    0 1390    2.20337   44.75224  1931%     -   16s
     0     0   43.57546    0 1380    2.20337   43.57546  1878%     -   18s
     0     0   43.18152    0 1383    2.20337   43.18152  1860%     -   19s
     0     0   42.47499    0 1412    2.20337   42.47499  1828%     -   20s
     0     0   41.82043    0 1420    2.20337   41.82043  1798%     -   22s
     0     0   40.74590    0 1396    2.20337   40.74590  1749%     -   23s
     0     0   40.39248    0 1416    2.20337   40.39248  1733%     -   25s
     0     0   39.89357    0 1410    2.20337   39.89357  1711%     -   26s
     0     0   39.72420    0 1407    2.20337   39.72420  1703%     -   27s
     0     0   39.46883    0 1418    2.20337   39.46883  1691%     -   29s
     0     0   39.34087    0 1424    2.20337   39.34087  1685%     -   30s
     0     0   38.92984    0 1386    2.20337   38.92984  1667%     -   32s
     0     0   38.78335    0 1394    2.20337   38.78335  1660%     -   33s
     0     0   38.52661    0 1406    2.20337   38.52661  1649%     -   34s
     0     0   38.33871    0 1403    2.20337   38.33871  1640%     -   35s
     0     0   38.08344    0 1409    2.20337   38.08344  1628%     -   37s
     0     0   37.79591    0 1412    2.20337   37.79591  1615%     -   39s
     0     0   37.52568    0 1401    2.20337   37.52568  1603%     -   40s
     0     0   37.40394    0 1418    2.20337   37.40394  1598%     -   41s
     0     0   37.19219    0 1428    2.20337   37.19219  1588%     -   43s
     0     0   37.03073    0 1424    2.20337   37.03073  1581%     -   43s
     0     0   36.91669    0 1432    2.20337   36.91669  1575%     -   45s
     0     0   36.69445    0 1431    2.20337   36.69445  1565%     -   47s
     0     2   36.69445    0 1430    2.20337   36.69445  1565%     -   50s
     7    16   34.07327    3 1264    2.20337   36.41070  1553%  3669   60s
    31    40   31.34675    6  983    2.20337   34.07298  1446%  2974   65s
   169   167   25.33908   15  521    2.20337   34.07298  1446%   774   70s
   558   468   17.28180   37  444    2.20337   34.07298  1446%   369   76s
   930   775   11.72616   55  237    2.20337   34.07298  1446%   287   80s
* 1111   832             255       2.2033652   34.07298  1446%   271   82s
  1184   880   32.87021    5 1184    2.20337   33.94516  1441%   273   86s
  1287   928   31.60874    7 1033    2.20337   33.94516  1441%   281   90s
  1428  1025   29.08282   10  523    2.20337   33.94516  1441%   281   95s

Cutting planes:
  Gomory: 4
  Cover: 76
  Implied bound: 750
  Clique: 35
  MIR: 1554
  StrongCG: 4
  Flow cover: 405
  GUB cover: 6
  Zero half: 11
  RLT: 306
  Relax-and-lift: 60
  BQP: 41

Explored 1487 nodes (468862 simplex iterations) in 100.01 seconds (148.81 work units)
Thread count was 8 (of 8 available processors)

Solution count 1: 2.20337 

Time limit reached
Best objective 2.203365213436e+00, best bound 3.394515585915e+01, gap 1440.6051%
